param n := 7;

set archi:= (1,2) (1,4) (2,3) (2,6) (3,4) (4,1) (4,5) (5,1) (5,6) (6,3) (4,7) (5,7) (2,1) (1,5) (4,6);
param costi :=
1,2 8
1,4 6
2,3 2
2,6 5
3,4 5
4,1 6
4,5 2
5,1 7
5,6 4
6,3 8
4,7 1
5,7 2
;
